language ESSENCE' 1.0

letting jobs = 102
letting horizon = 823
letting resourcesRenew = 2
letting resourcesNonrenew = 2
letting resourceLimits = [44, 51, 366, 394]
letting successors = [[2, 3, 4, 5, 6, 7, 8, 9, 10, 11, 12, 13, 15, 17, 18, 22, 23, 25], [64, 52, 50, 47, 43, 40, 39, 35, 33, 32, 31, 29, 27, 16, 14], [52, 46, 41, 35, 33, 27, 24, 21, 20, 14], [64, 61, 56, 52, 50, 49, 47, 44, 42, 41, 39, 38, 37, 36, 35, 34, 29, 26], [64, 63, 61, 56, 54, 50, 49, 47, 44, 43, 42, 41, 40, 38, 37, 30, 29, 27], [64, 61, 56, 52, 50, 49, 48, 42, 40, 38, 37, 34, 31, 29, 26], [51, 50, 49, 48, 38, 31, 30, 29, 28, 19], [64, 61, 56, 50, 49, 48, 47, 45, 44, 42, 37, 34, 26], [66, 64, 62, 61, 56, 42, 37, 36, 20], [62, 59, 52, 49, 48, 47, 46, 36, 34, 30, 28], [64, 62, 61, 50, 47, 44, 43, 42, 36, 30, 29], [64, 54, 52, 51, 50, 40, 39, 38, 30, 28], [57, 56, 54, 52, 51, 50, 39, 38, 34, 31], [67, 63, 61, 59, 54, 49, 44, 38, 36, 30], [67, 58, 53, 52, 49, 47, 44, 38, 37, 36], [56, 49, 45, 44, 38, 37, 34], [67, 66, 64, 63, 62, 60, 59, 58, 57, 56, 53, 51, 50, 47, 44], [68, 66, 64, 62, 61, 60, 59, 58, 54, 53, 51, 44, 43], [67, 64, 63, 62, 60, 58, 56, 55, 54, 53, 52, 47, 45, 44], [68, 60, 57, 54, 51, 50, 49, 44, 34], [57, 56, 49, 47, 38, 29], [63, 61, 57, 49, 38, 29], [78, 74, 67, 65, 64, 61, 59, 58, 53, 48, 36], [67, 66, 64, 62, 61, 57, 50, 44, 40, 37], [74, 69, 68, 67, 66, 58, 56, 55, 53, 38], [67, 66, 65, 62, 60, 59, 58, 57, 55, 54], [78, 74, 68, 66, 60, 59, 58, 51, 48], [101, 78, 74, 70, 68, 63, 61, 57, 55, 44], [78, 76, 68, 67, 60, 59, 55, 45], [78, 74, 73, 69, 66, 65, 58, 55, 53], [90, 78, 74, 70, 66, 55, 44], [60, 59, 51, 44], [78, 74, 73, 72, 69, 65, 60, 51], [92, 80, 78, 74, 73, 67, 63, 58, 53], [76, 73, 70, 69, 68, 60, 57, 55], [82, 76, 73, 68, 60, 57, 51], [77, 74, 70, 65, 59, 51], [92, 78, 76, 73, 70, 65, 62, 60], [84, 77, 66, 65, 55, 48], [101, 98, 93, 92, 91, 90, 83, 81, 78, 77, 76, 74, 72, 71, 70, 69], [101, 77, 73, 69, 65, 58, 55], [101, 84, 76, 73, 72, 68, 65, 55], [77, 76, 73, 71, 70, 67, 65, 57], [93, 92, 84, 83, 81, 77, 76, 73, 72, 71, 69, 65], [92, 91, 84, 81, 77, 74, 73, 72, 71, 69, 66], [101, 93, 92, 91, 90, 81, 77, 76, 73, 72, 71, 69], [101, 99, 97, 96, 95, 93, 92, 91, 90, 84, 83, 82, 81, 76, 75, 74, 73], [100, 99, 96, 93, 92, 91, 90, 83, 81, 76, 73, 72, 69], [95, 84, 82, 74, 73, 55], [100, 99, 96, 94, 92, 91, 83, 82, 81, 78, 76, 73, 72], [101, 95, 90, 88, 84, 55], [97, 96, 92, 90, 82, 81, 72, 71, 66], [101, 98, 97, 95, 93, 91, 90, 83, 82, 77, 71], [100, 99, 98, 96, 94, 90, 83, 82, 80, 79, 78, 74], [98, 97, 96, 94, 93, 92, 91, 83, 81, 80, 71], [100, 99, 98, 96, 95, 89, 84, 82, 81, 79, 75], [100, 96, 95, 94, 93, 92, 91, 81, 79, 72], [100, 97, 90, 82, 81, 76, 70], [94, 92, 81, 79, 75, 73, 69], [100, 98, 95, 93, 90, 88, 83, 81, 77, 75], [97, 96, 95, 92, 89, 82, 81, 80, 71], [101, 98, 97, 95, 93, 83, 81, 72], [99, 98, 97, 96, 95, 93, 88, 87, 86, 79], [100, 99, 96, 95, 92, 82, 81, 80], [99, 98, 96, 95, 94, 91, 86, 85, 82], [99, 98, 95, 94, 93, 75], [99, 97, 96, 94, 89, 88, 79], [90, 88, 87, 86, 83, 79], [97, 95, 89, 86, 85, 82], [96, 95, 89, 87, 85, 84], [100, 99, 87, 86, 79], [89, 88, 75], [98, 89, 87, 85], [88, 87, 85], [85, 80], [86, 79], [96, 87], [97, 95], [85], [86], [87], [88], [89], [94], [102], [102], [102], [102], [102], [102], [102], [102], [102], [102], [102], [102], [102], [102], [102], [102], [102], []]
letting durations = [[0], [4, 6, 7], [2, 4, 10], [2, 3, 9], [1, 4, 5], [4, 4, 6], [1, 5, 6], [3, 4, 7], [4, 6, 9], [1, 2, 5], [5, 8, 9], [2, 6, 9], [4, 8, 9], [1, 6, 8], [3, 7, 9], [5, 7, 10], [3, 7, 8], [4, 6, 7], [5, 9, 9], [6, 7, 9], [1, 9, 10], [8, 9, 10], [1, 3, 7], [2, 7, 8], [4, 5, 10], [6, 7, 7], [6, 6, 8], [3, 6, 10], [2, 5, 6], [3, 6, 10], [3, 9, 10], [2, 4, 7], [1, 5, 9], [4, 5, 9], [2, 2, 4], [2, 4, 10], [1, 5, 10], [4, 5, 8], [1, 2, 6], [6, 6, 7], [3, 9, 10], [4, 5, 6], [3, 5, 7], [3, 6, 9], [6, 8, 10], [2, 3, 5], [7, 8, 10], [5, 8, 8], [5, 6, 8], [3, 3, 4], [6, 9, 10], [2, 3, 10], [4, 5, 9], [4, 4, 7], [4, 7, 10], [2, 5, 7], [1, 4, 9], [1, 2, 7], [3, 5, 9], [2, 7, 10], [4, 5, 8], [3, 6, 10], [4, 5, 8], [4, 6, 7], [3, 4, 7], [1, 6, 7], [8, 9, 10], [3, 5, 6], [2, 7, 8], [5, 9, 10], [4, 7, 10], [3, 9, 10], [4, 5, 10], [4, 5, 9], [1, 2, 10], [2, 9, 10], [2, 7, 8], [8, 9, 10], [2, 3, 6], [1, 5, 8], [1, 4, 10], [5, 6, 10], [2, 4, 9], [3, 3, 8], [4, 8, 10], [2, 3, 8], [5, 6, 8], [2, 7, 8], [6, 7, 8], [4, 5, 8], [2, 4, 5], [3, 7, 8], [3, 7, 10], [4, 7, 8], [1, 2, 4], [6, 7, 9], [5, 9, 10], [2, 3, 3], [3, 6, 10], [5, 6, 7], [6, 7, 8], [0]]
letting resourceUsage = [[[0, 0, 0, 0]], [[1, 3, 3, 0], [1, 3, 0, 4], [1, 2, 3, 0]], [[2, 4, 6, 0], [2, 4, 5, 0], [1, 4, 2, 0]], [[3, 5, 8, 0], [3, 4, 0, 8], [3, 3, 6, 0]], [[5, 4, 0, 8], [5, 3, 0, 7], [5, 3, 1, 0]], [[4, 3, 0, 7], [3, 3, 4, 0], [3, 3, 0, 5]], [[4, 4, 0, 7], [4, 2, 0, 7], [4, 2, 6, 0]], [[4, 1, 0, 9], [3, 1, 0, 9], [3, 1, 0, 8]], [[2, 3, 0, 2], [2, 2, 5, 0], [2, 1, 4, 0]], [[3, 2, 0, 8], [3, 1, 4, 0], [2, 1, 2, 0]], [[2, 5, 10, 0], [2, 4, 0, 4], [2, 4, 8, 0]], [[3, 3, 0, 9], [2, 3, 0, 6], [2, 1, 3, 0]], [[5, 3, 0, 9], [3, 3, 0, 8], [1, 3, 0, 6]], [[5, 2, 0, 2], [2, 2, 0, 2], [1, 2, 0, 2]], [[4, 5, 4, 0], [3, 3, 0, 6], [2, 2, 0, 3]], [[1, 4, 2, 0], [1, 4, 1, 0], [1, 3, 0, 2]], [[3, 4, 0, 10], [3, 4, 4, 0], [2, 3, 2, 0]], [[3, 3, 0, 5], [1, 3, 4, 0], [1, 2, 3, 0]], [[5, 4, 7, 0], [3, 3, 0, 5], [3, 1, 6, 0]], [[5, 3, 0, 4], [4, 2, 3, 0], [2, 1, 0, 2]], [[4, 5, 0, 7], [3, 5, 0, 6], [1, 5, 0, 6]], [[1, 4, 7, 0], [1, 3, 5, 0], [1, 1, 0, 3]], [[4, 5, 3, 0], [3, 3, 0, 9], [2, 3, 0, 9]], [[3, 4, 0, 10], [2, 3, 5, 0], [2, 3, 0, 8]], [[3, 5, 0, 6], [3, 4, 5, 0], [2, 3, 0, 5]], [[5, 5, 3, 0], [3, 5, 1, 0], [1, 5, 0, 6]], [[4, 5, 9, 0], [3, 3, 0, 5], [3, 3, 7, 0]], [[4, 5, 0, 3], [3, 5, 0, 2], [3, 5, 2, 0]], [[4, 5, 9, 0], [3, 3, 0, 6], [3, 3, 0, 2]], [[4, 5, 7, 0], [4, 4, 0, 1], [4, 3, 0, 1]], [[4, 5, 0, 8], [2, 4, 7, 0], [2, 4, 6, 0]], [[4, 4, 0, 6], [3, 2, 0, 4], [2, 2, 0, 4]], [[4, 5, 9, 0], [4, 4, 9, 0], [2, 4, 9, 0]], [[4, 3, 0, 8], [2, 1, 0, 7], [1, 1, 2, 0]], [[2, 3, 8, 0], [1, 3, 0, 3], [1, 3, 7, 0]], [[4, 4, 6, 0], [2, 4, 0, 5], [2, 4, 5, 0]], [[4, 4, 7, 0], [3, 4, 0, 3], [3, 4, 0, 2]], [[3, 4, 0, 5], [3, 2, 4, 0], [3, 1, 0, 3]], [[4, 5, 0, 8], [4, 5, 0, 5], [4, 5, 0, 2]], [[5, 4, 0, 7], [4, 2, 7, 0], [4, 2, 6, 0]], [[3, 4, 5, 0], [3, 3, 4, 0], [2, 3, 1, 0]], [[2, 3, 6, 0], [2, 2, 3, 0], [2, 2, 1, 0]], [[4, 3, 5, 0], [3, 3, 4, 0], [2, 3, 3, 0]], [[3, 5, 0, 8], [3, 4, 8, 0], [1, 3, 8, 0]], [[1, 3, 0, 5], [1, 3, 3, 0], [1, 2, 1, 0]], [[1, 3, 5, 0], [1, 2, 5, 0], [1, 2, 0, 6]], [[3, 2, 8, 0], [2, 1, 8, 0], [2, 1, 7, 0]], [[2, 4, 6, 0], [1, 4, 6, 0], [1, 4, 0, 8]], [[3, 2, 4, 0], [3, 2, 0, 7], [2, 2, 2, 0]], [[3, 4, 5, 0], [1, 3, 0, 6], [1, 3, 3, 0]], [[2, 4, 7, 0], [2, 4, 0, 7], [2, 4, 0, 6]], [[1, 3, 5, 0], [1, 2, 4, 0], [1, 1, 0, 1]], [[2, 4, 0, 6], [1, 4, 0, 6], [1, 4, 0, 4]], [[4, 5, 0, 5], [4, 3, 5, 0], [4, 3, 4, 0]], [[4, 4, 0, 8], [3, 2, 0, 7], [2, 1, 6, 0]], [[3, 3, 3, 0], [3, 2, 0, 2], [1, 2, 2, 0]], [[3, 4, 0, 8], [3, 4, 7, 0], [3, 4, 0, 4]], [[5, 2, 0, 10], [5, 2, 0, 9], [5, 2, 2, 0]], [[1, 3, 5, 0], [1, 2, 3, 0], [1, 2, 1, 0]], [[4, 3, 3, 0], [3, 2, 0, 5], [3, 2, 0, 4]], [[2, 1, 0, 4], [2, 1, 1, 0], [2, 1, 0, 3]], [[3, 3, 5, 0], [3, 3, 4, 0], [3, 1, 0, 2]], [[5, 4, 7, 0], [5, 3, 4, 0], [5, 2, 0, 6]], [[1, 1, 0, 8], [1, 1, 4, 0], [1, 1, 0, 6]], [[3, 5, 4, 0], [3, 5, 3, 0], [3, 5, 2, 0]], [[4, 4, 0, 5], [3, 3, 4, 0], [3, 1, 0, 2]], [[3, 3, 4, 0], [3, 2, 0, 6], [3, 1, 0, 6]], [[4, 3, 10, 0], [4, 2, 0, 7], [2, 2, 9, 0]], [[1, 5, 0, 4], [1, 3, 10, 0], [1, 3, 9, 0]], [[3, 5, 5, 0], [3, 3, 0, 4], [3, 3, 3, 0]], [[3, 2, 5, 0], [3, 1, 2, 0], [3, 1, 0, 4]], [[5, 4, 9, 0], [4, 3, 9, 0], [4, 2, 0, 3]], [[5, 3, 3, 0], [5, 2, 0, 3], [5, 2, 0, 1]], [[4, 1, 0, 9], [3, 1, 5, 0], [3, 1, 4, 0]], [[3, 5, 0, 2], [2, 5, 0, 2], [2, 5, 8, 0]], [[3, 1, 7, 0], [2, 1, 6, 0], [2, 1, 5, 0]], [[2, 4, 7, 0], [1, 3, 5, 0], [1, 2, 5, 0]], [[3, 1, 0, 7], [3, 1, 0, 6], [3, 1, 0, 5]], [[5, 5, 0, 8], [5, 4, 4, 0], [5, 3, 3, 0]], [[3, 4, 0, 5], [2, 3, 7, 0], [2, 3, 6, 0]], [[2, 4, 0, 8], [2, 4, 5, 0], [2, 2, 4, 0]], [[4, 4, 6, 0], [3, 3, 4, 0], [3, 3, 0, 1]], [[4, 5, 5, 0], [3, 4, 4, 0], [2, 4, 0, 2]], [[5, 4, 6, 0], [5, 3, 0, 5], [5, 3, 4, 0]], [[5, 4, 7, 0], [3, 4, 0, 7], [3, 4, 0, 6]], [[3, 3, 4, 0], [3, 1, 0, 8], [3, 1, 2, 0]], [[1, 1, 7, 0], [1, 1, 6, 0], [1, 1, 0, 3]], [[2, 3, 0, 8], [2, 3, 6, 0], [2, 2, 5, 0]], [[5, 5, 0, 9], [2, 4, 8, 0], [2, 3, 8, 0]], [[3, 3, 7, 0], [3, 3, 0, 8], [3, 1, 0, 7]], [[4, 2, 0, 1], [3, 1, 3, 0], [1, 1, 0, 1]], [[4, 1, 0, 4], [4, 1, 0, 3], [4, 1, 0, 2]], [[4, 3, 6, 0], [4, 3, 0, 1], [3, 3, 0, 1]], [[4, 1, 2, 0], [4, 1, 1, 0], [3, 1, 0, 6]], [[3, 3, 0, 6], [3, 3, 5, 0], [2, 2, 0, 4]], [[2, 5, 0, 6], [2, 4, 0, 6], [2, 3, 7, 0]], [[4, 2, 0, 4], [3, 2, 0, 3], [3, 2, 0, 2]], [[5, 2, 8, 0], [3, 2, 0, 7], [3, 1, 6, 0]], [[5, 2, 0, 5], [5, 2, 0, 4], [5, 2, 6, 0]], [[1, 3, 0, 7], [1, 3, 0, 6], [1, 1, 0, 6]], [[4, 3, 0, 7], [3, 3, 0, 6], [3, 3, 0, 5]], [[0, 0, 0, 0]]]
